(declare-fun var0 () String)
(assert (RegexIn var0 (RegexConcat (RegexPlus (RegexUnion (Str2Reg "kk") (Str2Reg "ll"))) (RegexConcat (RegexStar (RegexUnion (Str2Reg "ii") (Str2Reg "jjj"))) (RegexConcat (RegexStar (RegexUnion (Str2Reg "ggg") (Str2Reg "h"))) (RegexConcat (RegexPlus (RegexStar (Str2Reg "ff"))) (RegexConcat (RegexUnion (RegexUnion (Str2Reg "cc") (Str2Reg "dd")) (RegexStar (Str2Reg "eee"))) (RegexConcat (RegexPlus (RegexPlus (Str2Reg "bb"))) (RegexConcat (RegexUnion (RegexPlus (Str2Reg "88")) (RegexUnion (Str2Reg "999") (Str2Reg "aaa"))) (RegexConcat (RegexUnion (RegexStar (Str2Reg "66")) (RegexStar (Str2Reg "777"))) (RegexConcat (RegexStar (RegexStar (Str2Reg "5"))) (RegexConcat (RegexUnion (RegexUnion (Str2Reg "222") (Str2Reg "3")) (RegexPlus (Str2Reg "4"))) (RegexConcat (RegexStar (RegexStar (Str2Reg "11"))) (RegexConcat (RegexUnion (RegexPlus (Str2Reg "~~")) (RegexStar (Str2Reg "0"))) (RegexConcat (RegexStar (RegexStar (Str2Reg "}"))) (RegexConcat (RegexUnion (RegexPlus (Str2Reg "{")) (RegexStar (Str2Reg "||"))) (RegexConcat (RegexPlus (RegexStar (Str2Reg "`"))) (RegexConcat (RegexPlus (RegexPlus (Str2Reg "___"))) (RegexConcat (RegexPlus (RegexPlus (Str2Reg "^^^"))) (RegexConcat (RegexUnion (RegexStar (Str2Reg "\\\\")) (RegexStar (Str2Reg "]]"))) (RegexConcat (RegexStar (RegexPlus (Str2Reg "[[["))) (RegexConcat (RegexPlus (RegexStar (Str2Reg "@@"))) (RegexConcat (RegexPlus (RegexPlus (Str2Reg "???"))) (RegexConcat (RegexUnion (RegexPlus (Str2Reg "==")) (RegexPlus (Str2Reg ">>>"))) (RegexConcat (RegexStar (RegexUnion (Str2Reg ";;;") (Str2Reg "<<"))) (RegexConcat (RegexStar (RegexStar (Str2Reg "::"))) (RegexConcat (RegexUnion (RegexStar (Str2Reg "..")) (RegexPlus (Str2Reg "//"))) (RegexConcat (RegexStar (RegexStar (Str2Reg "--"))) (RegexConcat (RegexPlus (RegexPlus (Str2Reg ",,,"))) (RegexConcat (RegexPlus (RegexStar (Str2Reg "+++"))) (RegexConcat (RegexPlus (RegexPlus (Str2Reg "*"))) (RegexConcat (RegexUnion (RegexStar (Str2Reg "'")) (RegexUnion (Str2Reg "((") (Str2Reg ")"))) (RegexConcat (RegexPlus (RegexUnion (Str2Reg "%") (Str2Reg "&&&"))) (RegexConcat (RegexUnion (RegexStar (Str2Reg "\"\"\"")) (RegexUnion (Str2Reg "##") (Str2Reg "$$$"))) (RegexConcat (RegexStar (RegexStar (Str2Reg "!"))) (RegexConcat (RegexPlus (RegexPlus (Str2Reg "Z"))) (RegexConcat (RegexStar (RegexStar (Str2Reg "Y"))) (RegexConcat (RegexUnion (RegexPlus (Str2Reg "W")) (RegexPlus (Str2Reg "X"))) (RegexConcat (RegexStar (RegexStar (Str2Reg "VVV"))) (RegexConcat (RegexUnion (RegexUnion (Str2Reg "SS") (Str2Reg "TT")) (RegexStar (Str2Reg "U"))) (RegexConcat (RegexStar (RegexUnion (Str2Reg "QQQ") (Str2Reg "RR"))) (RegexConcat (RegexUnion (RegexStar (Str2Reg "OO")) (RegexPlus (Str2Reg "P"))) (RegexConcat (RegexStar (RegexStar (Str2Reg "NN"))) (RegexConcat (RegexPlus (RegexUnion (Str2Reg "LL") (Str2Reg "MMM"))) (RegexConcat (RegexStar (RegexUnion (Str2Reg "J") (Str2Reg "K"))) (RegexConcat (RegexPlus (RegexPlus (Str2Reg "I"))) (RegexConcat (RegexPlus (RegexUnion (Str2Reg "GGG") (Str2Reg "HH"))) (RegexConcat (RegexPlus (RegexStar (Str2Reg "FFF"))) (RegexConcat (RegexUnion (RegexStar (Str2Reg "C")) (RegexUnion (Str2Reg "DD") (Str2Reg "EE"))) (RegexConcat (RegexUnion (RegexUnion (Str2Reg "zz") (Str2Reg "AAA")) (RegexPlus (Str2Reg "BB"))) (RegexConcat (RegexUnion (RegexUnion (Str2Reg "ww") (Str2Reg "xx")) (RegexPlus (Str2Reg "yy"))) (RegexConcat (RegexPlus (RegexUnion (Str2Reg "uu") (Str2Reg "v"))) (RegexConcat (RegexPlus (RegexUnion (Str2Reg "sss") (Str2Reg "ttt"))) (RegexConcat (RegexStar (RegexPlus (Str2Reg "rrr"))) (RegexConcat (RegexPlus (RegexUnion (Str2Reg "pp") (Str2Reg "qq"))) (RegexConcat (RegexPlus (RegexUnion (Str2Reg "n") (Str2Reg "oo"))) (RegexConcat (RegexPlus (RegexPlus (Str2Reg "mmm"))) (RegexConcat (RegexUnion (RegexPlus (Str2Reg "kkk")) (RegexPlus (Str2Reg "l"))) (RegexConcat (RegexUnion (RegexUnion (Str2Reg "hh") (Str2Reg "iii")) (RegexPlus (Str2Reg "jj"))) (RegexConcat (RegexStar (RegexPlus (Str2Reg "gg"))) (RegexConcat (RegexUnion (RegexPlus (Str2Reg "ddd")) (RegexUnion (Str2Reg "eee") (Str2Reg "ff"))) (RegexConcat (RegexStar (RegexPlus (Str2Reg "c"))) (RegexConcat (RegexPlus (RegexUnion (Str2Reg "aaa") (Str2Reg "bb"))) (RegexConcat (RegexStar (RegexPlus (Str2Reg "999"))) (RegexConcat (RegexUnion (RegexUnion (Str2Reg "55") (Str2Reg "666")) (RegexUnion (Str2Reg "7") (Str2Reg "88"))) (RegexConcat (RegexPlus (RegexUnion (Str2Reg "333") (Str2Reg "4"))) (RegexConcat (RegexUnion (RegexStar (Str2Reg "11")) (RegexPlus (Str2Reg "2"))) (RegexConcat (RegexPlus (RegexPlus (Str2Reg "00"))) (RegexConcat (RegexStar (RegexStar (Str2Reg "~~~"))) (RegexConcat (RegexUnion (RegexStar (Str2Reg "{{")) (RegexUnion (Str2Reg "|||") (Str2Reg "}"))) (RegexConcat (RegexStar (RegexUnion (Str2Reg "___") (Str2Reg "```"))) (RegexConcat (RegexPlus (RegexUnion (Str2Reg "]]]") (Str2Reg "^"))) (RegexConcat (RegexPlus (RegexStar (Str2Reg "\\"))) (RegexConcat (RegexPlus (RegexStar (Str2Reg "["))) (RegexConcat (RegexUnion (RegexPlus (Str2Reg "??")) (RegexStar (Str2Reg "@"))) (RegexConcat (RegexUnion (RegexUnion (Str2Reg "<<<") (Str2Reg "=")) (RegexStar (Str2Reg ">>>"))) (RegexConcat (RegexPlus (RegexPlus (Str2Reg ";;;"))) (RegexConcat (RegexPlus (RegexUnion (Str2Reg "///") (Str2Reg ":"))) (RegexConcat (RegexUnion (RegexStar (Str2Reg ",")) (RegexUnion (Str2Reg "-") (Str2Reg ".."))) (RegexConcat (RegexPlus (RegexStar (Str2Reg "++"))) (RegexConcat (RegexPlus (RegexUnion (Str2Reg ")") (Str2Reg "**"))) (RegexConcat (RegexPlus (RegexStar (Str2Reg "(("))) (RegexConcat (RegexUnion (RegexPlus (Str2Reg "&")) (RegexStar (Str2Reg "'"))) (RegexConcat (RegexStar (RegexPlus (Str2Reg "%%%"))) (RegexConcat (RegexUnion (RegexUnion (Str2Reg "\"\"") (Str2Reg "##")) (RegexPlus (Str2Reg "$$$"))) (RegexConcat (RegexUnion (RegexPlus (Str2Reg "ZZ")) (RegexStar (Str2Reg "!!"))) (RegexConcat (RegexStar (RegexUnion (Str2Reg "XXX") (Str2Reg "Y"))) (RegexConcat (RegexStar (RegexStar (Str2Reg "WW"))) (RegexConcat (RegexUnion (RegexUnion (Str2Reg "TTT") (Str2Reg "U")) (RegexPlus (Str2Reg "V"))) (RegexConcat (RegexUnion (RegexStar (Str2Reg "RRR")) (RegexPlus (Str2Reg "SS"))) (RegexConcat (RegexStar (RegexUnion (Str2Reg "PPP") (Str2Reg "QQ"))) (RegexConcat (RegexUnion (RegexUnion (Str2Reg "L") (Str2Reg "MMM")) (RegexUnion (Str2Reg "NN") (Str2Reg "OOO"))) (RegexConcat (RegexPlus (RegexUnion (Str2Reg "J") (Str2Reg "KK"))) (RegexConcat (RegexPlus (RegexStar (Str2Reg "II"))) (RegexConcat (RegexPlus (RegexStar (Str2Reg "H"))) (RegexConcat (RegexUnion (RegexStar (Str2Reg "FFF")) (RegexPlus (Str2Reg "GGG"))) (RegexConcat (RegexPlus (RegexStar (Str2Reg "EE"))) (RegexConcat (RegexUnion (RegexStar (Str2Reg "BB")) (RegexUnion (Str2Reg "CC") (Str2Reg "DDD"))) (RegexConcat (RegexStar (RegexUnion (Str2Reg "zzz") (Str2Reg "A"))) (RegexConcat (RegexStar (RegexPlus (Str2Reg "yyy"))) (RegexConcat (RegexStar (RegexStar (Str2Reg "xxx"))) (RegexConcat (RegexStar (RegexPlus (Str2Reg "ww"))) (RegexConcat (RegexUnion (RegexUnion (Str2Reg "t") (Str2Reg "uu")) (RegexPlus (Str2Reg "vv"))) (RegexConcat (RegexUnion (RegexStar (Str2Reg "rrr")) (RegexPlus (Str2Reg "sss"))) (RegexConcat (RegexPlus (RegexPlus (Str2Reg "qqq"))) (RegexConcat (RegexStar (RegexUnion (Str2Reg "oo") (Str2Reg "ppp"))) (RegexConcat (RegexStar (RegexUnion (Str2Reg "mm") (Str2Reg "n"))) (RegexConcat (RegexPlus (RegexUnion (Str2Reg "kkk") (Str2Reg "ll"))) (RegexConcat (RegexPlus (RegexPlus (Str2Reg "jjj"))) (RegexConcat (RegexPlus (RegexStar (Str2Reg "ii"))) (RegexConcat (RegexStar (RegexStar (Str2Reg "hhh"))) (RegexConcat (RegexPlus (RegexPlus (Str2Reg "gg"))) (RegexConcat (RegexStar (RegexStar (Str2Reg "fff"))) (RegexConcat (RegexStar (RegexStar (Str2Reg "e"))) (RegexConcat (RegexPlus (RegexUnion (Str2Reg "cc") (Str2Reg "ddd"))) (RegexConcat (RegexPlus (RegexUnion (Str2Reg "aaa") (Str2Reg "bb"))) (RegexConcat (RegexPlus (RegexStar (Str2Reg "9"))) (RegexConcat (RegexStar (RegexUnion (Str2Reg "77") (Str2Reg "888"))) (RegexConcat (RegexStar (RegexStar (Str2Reg "6"))) (RegexConcat (RegexUnion (RegexUnion (Str2Reg "222") (Str2Reg "33")) (RegexUnion (Str2Reg "4") (Str2Reg "5"))) (RegexConcat (RegexPlus (RegexStar (Str2Reg "11"))) (RegexStar (RegexStar (Str2Reg "00"))))))))))))))))))))))))))))))))))))))))))))))))))))))))))))))))))))))))))))))))))))))))))))))))))))))))))))))))))))))))))))
(check-sat)